param sigma
: 1   2 :=
1 0.00001 0.99999
2 0.10000 0.90000
3 0.20000 0.80000
4 0.30000 0.70000
5 0.40000 0.60000
6 0.50000 0.50000
7 0.90000 0.10000
8 0.80000 0.20000
9 0.70000 0.30000
10 0.60000 0.40000
11 0.99999 0.00001
;

set S:=
1 2 3 4 5 6 7 8 9 10 11 12 13 14 15 16 17 18 19 20 21 22 23 24 25 26 27 28 29 30 31 32 33 34 35 36 37 38 39 40 41 42 43 44 45 46 47 48 49 50 51 52 53 54 55 56 57 58 59 60 61 62 63 64 65 66 67 68 69 70 71 72 73 74 75 76 77 78 79 80 81 82 83 84 ;

set C:=
1 2 3 4 5 6 7 8 9 10 11 12 ;

set A:=
1 2 3 4 5 6 7 8 9 10 11 12 13 14 15 16 17 18 19 20 21 22 23 24 ;

set T:=
1_1_2 1_3_4 1_5_6 1_7_8 1_9_10
2_1_2 2_3_4 2_5_6 2_7_8 2_9_10
;

set R:=
1 2 3 4 5 ;

set Ac[1]:=
1 2 ;
set Ac[2]:=
3 4 ;
set Ac[3]:=
5 6 ;
set Ac[4]:=
7 8 ;
set Ac[5]:=
9 10 ;
set Ac[6]:=
11 12 ;
set Ac[7]:=
13 14 ;
set Ac[8]:=
15 16 ;
set Ac[9]:=
17 18 ;
set Ac[10]:=
19 20 ;
set Ac[11]:=
21 22 ;
set Ac[12]:=
23 24 ;

set Cs[1]:=
4 10 8 2 11 12 ;
set Cs[2]:=
11 4 9 7 8 2 6 ;
set Cs[3]:=
12 4 11 3 10 5 9 ;
set Cs[4]:=
7 9 2 8 12 10 1 ;
set Cs[5]:=
2 3 10 8 6 4 ;
set Cs[6]:=
3 6 5 7 9 8 11 ;
set Cs[7]:=
7 3 6 8 11 9 ;
set Cs[8]:=
10 4 2 9 8 ;
set Cs[9]:=
1 11 9 8 5 6 2 ;
set Cs[10]:=
7 8 10 6 5 1 ;
set Cs[11]:=
12 1 8 11 4 5 9 ;
set Cs[12]:=
7 6 2 9 12 4 1 ;
set Cs[13]:=
1 5 9 3 6 8 4 ;
set Cs[14]:=
5 12 3 11 8 9 7 ;
set Cs[15]:=
1 6 11 9 10 ;
set Cs[16]:=
12 3 5 8 1 2 ;
set Cs[17]:=
6 9 10 1 2 3 12 ;
set Cs[18]:=
3 4 8 7 11 2 10 ;
set Cs[19]:=
7 8 4 2 3 10 ;
set Cs[20]:=
3 10 1 5 11 4 9 ;
set Cs[21]:=
3 11 10 4 8 ;
set Cs[22]:=
8 3 12 6 2 10 ;
set Cs[23]:=
10 1 6 7 11 ;
set Cs[24]:=
3 6 8 10 9 12 2 ;
set Cs[25]:=
5 4 11 12 9 8 ;
set Cs[26]:=
2 10 8 5 6 7 ;
set Cs[27]:=
8 2 1 3 12 10 ;
set Cs[28]:=
12 2 5 10 6 3 11 ;
set Cs[29]:=
3 8 12 4 1 5 ;
set Cs[30]:=
1 5 4 3 2 ;
set Cs[31]:=
7 8 1 3 10 ;
set Cs[32]:=
5 3 4 12 2 ;
set Cs[33]:=
9 7 11 1 6 ;
set Cs[34]:=
11 1 9 6 4 7 8 ;
set Cs[35]:=
9 7 11 1 5 8 3 ;
set Cs[36]:=
8 6 2 3 9 4 12 ;
set Cs[37]:=
6 8 9 2 7 ;
set Cs[38]:=
10 4 7 9 3 ;
set Cs[39]:=
6 9 11 5 1 7 ;
set Cs[40]:=
12 5 1 4 3 8 ;
set Cs[41]:=
4 9 10 1 8 ;
set Cs[42]:=
5 1 4 6 8 ;
set Cs[43]:=
5 6 1 11 7 2 12 ;
set Cs[44]:=
1 3 2 7 11 10 ;
set Cs[45]:=
5 3 10 7 1 ;
set Cs[46]:=
10 7 3 8 1 4 ;
set Cs[47]:=
11 4 3 1 10 8 ;
set Cs[48]:=
11 2 1 9 8 10 ;
set Cs[49]:=
3 9 1 4 12 2 ;
set Cs[50]:=
4 2 1 8 12 6 ;
set Cs[51]:=
9 12 2 6 4 10 3 ;
set Cs[52]:=
6 10 2 3 4 11 1 ;
set Cs[53]:=
10 5 1 9 8 11 ;
set Cs[54]:=
1 9 2 7 5 3 ;
set Cs[55]:=
5 6 4 11 8 2 ;
set Cs[56]:=
12 4 5 10 8 7 11 ;
set Cs[57]:=
7 12 11 6 2 4 ;
set Cs[58]:=
10 2 1 6 4 12 5 ;
set Cs[59]:=
3 10 9 6 7 2 11 ;
set Cs[60]:=
6 12 4 3 8 10 7 ;
set Cs[61]:=
10 6 7 5 1 11 3 ;
set Cs[62]:=
1 7 6 12 3 2 ;
set Cs[63]:=
11 4 5 3 10 1 9 ;
set Cs[64]:=
10 8 2 5 1 ;
set Cs[65]:=
4 9 8 10 1 2 12 ;
set Cs[66]:=
4 5 9 3 12 7 1 ;
set Cs[67]:=
2 6 9 1 4 ;
set Cs[68]:=
5 3 4 7 1 ;
set Cs[69]:=
3 12 2 1 4 6 7 ;
set Cs[70]:=
7 5 11 10 2 4 ;
set Cs[71]:=
3 11 7 12 4 6 9 ;
set Cs[72]:=
1 9 7 12 2 8 10 ;
set Cs[73]:=
11 9 2 5 10 4 ;
set Cs[74]:=
9 10 8 2 11 ;
set Cs[75]:=
5 6 7 1 2 9 ;
set Cs[76]:=
6 1 7 11 8 10 4 ;
set Cs[77]:=
9 11 8 2 12 ;
set Cs[78]:=
4 9 7 5 8 ;
set Cs[79]:=
10 6 11 7 5 9 3 ;
set Cs[80]:=
6 11 3 10 7 8 1 ;
set Cs[81]:=
9 4 7 3 11 12 8 ;
set Cs[82]:=
10 6 2 7 11 ;
set Cs[83]:=
11 12 8 5 1 10 ;
set Cs[84]:=
12 9 10 4 6 ;

set Ra[1]:=
1 2 3 4 5 ;
set Ra[2]:=
1 2 3 4 5 ;
set Ra[3]:=
1 2 3 4 5 ;
set Ra[4]:=
1 2 3 4 5 ;
set Ra[5]:=
1 2 3 4 5 ;
set Ra[6]:=
1 2 3 4 5 ;
set Ra[7]:=
1 2 3 4 5 ;
set Ra[8]:=
1 2 3 4 5 ;
set Ra[9]:=
1 2 3 4 5 ;
set Ra[10]:=
1 2 3 4 5 ;
set Ra[11]:=
1 2 3 4 5 ;
set Ra[12]:=
1 2 3 4 5 ;
set Ra[13]:=
1 2 3 4 5 ;
set Ra[14]:=
1 2 3 4 5 ;
set Ra[15]:=
1 2 3 4 5 ;
set Ra[16]:=
1 2 3 4 5 ;
set Ra[17]:=
1 2 3 4 5 ;
set Ra[18]:=
1 2 3 4 5 ;
set Ra[19]:=
1 2 3 4 5 ;
set Ra[20]:=
1 2 3 4 5 ;
set Ra[21]:=
1 2 3 4 5 ;
set Ra[22]:=
1 2 3 4 5 ;
set Ra[23]:=
1 2 3 4 5 ;
set Ra[24]:=
1 2 3 4 5 ;

set Ts[1]:=
1_5_6 2_1_2 2_9_10 ;
set Ts[2]:=
2_5_6 2_9_10 1_5_6 ;
set Ts[3]:=
2_5_6 1_3_4 ;
set Ts[4]:=
1_3_4 2_9_10 1_1_2 ;
set Ts[5]:=
2_5_6 1_7_8 1_3_4 1_5_6 ;
set Ts[6]:=
2_9_10 2_7_8 2_5_6 2_1_2 ;
set Ts[7]:=
2_1_2 1_9_10 ;
set Ts[8]:=
2_5_6 1_7_8 2_1_2 ;
set Ts[9]:=
1_9_10 1_5_6 ;
set Ts[10]:=
2_3_4 2_7_8 ;
set Ts[11]:=
2_3_4 1_5_6 ;
set Ts[12]:=
1_5_6 2_5_6 2_7_8 ;
set Ts[13]:=
1_5_6 2_1_2 2_9_10 1_9_10 ;
set Ts[14]:=
2_7_8 1_7_8 2_9_10 2_5_6 ;
set Ts[15]:=
2_3_4 1_5_6 1_7_8 ;
set Ts[16]:=
1_9_10 2_7_8 1_5_6 1_3_4 ;
set Ts[17]:=
1_9_10 2_9_10 1_3_4 ;
set Ts[18]:=
1_7_8 1_5_6 2_3_4 ;
set Ts[19]:=
1_9_10 2_1_2 1_7_8 ;
set Ts[20]:=
2_1_2 1_9_10 ;
set Ts[21]:=
1_1_2 1_9_10 2_5_6 1_5_6 ;
set Ts[22]:=
2_7_8 2_9_10 1_3_4 1_1_2 ;
set Ts[23]:=
2_7_8 2_1_2 ;
set Ts[24]:=
2_9_10 1_5_6 1_7_8 ;
set Ts[25]:=
1_7_8 2_1_2 ;
set Ts[26]:=
1_1_2 2_5_6 ;
set Ts[27]:=
2_5_6 1_7_8 ;
set Ts[28]:=
2_3_4 1_7_8 1_1_2 2_5_6 ;
set Ts[29]:=
2_1_2 1_3_4 1_1_2 ;
set Ts[30]:=
2_3_4 2_9_10 1_7_8 2_1_2 ;
set Ts[31]:=
2_1_2 1_7_8 ;
set Ts[32]:=
1_9_10 1_3_4 2_3_4 2_7_8 ;
set Ts[33]:=
1_7_8 1_9_10 ;
set Ts[34]:=
2_5_6 1_5_6 ;
set Ts[35]:=
2_3_4 1_5_6 ;
set Ts[36]:=
1_7_8 2_5_6 1_1_2 ;
set Ts[37]:=
2_1_2 1_9_10 2_3_4 1_5_6 ;
set Ts[38]:=
1_5_6 1_9_10 1_7_8 2_5_6 ;
set Ts[39]:=
2_7_8 2_5_6 ;
set Ts[40]:=
1_3_4 1_5_6 2_7_8 2_9_10 ;
set Ts[41]:=
2_9_10 1_9_10 ;
set Ts[42]:=
1_5_6 1_1_2 2_1_2 ;
set Ts[43]:=
2_5_6 1_1_2 1_3_4 ;
set Ts[44]:=
2_9_10 1_3_4 ;
set Ts[45]:=
1_1_2 2_1_2 1_9_10 2_9_10 ;
set Ts[46]:=
1_3_4 1_9_10 ;
set Ts[47]:=
2_9_10 1_3_4 ;
set Ts[48]:=
1_7_8 2_7_8 ;
set Ts[49]:=
2_9_10 2_1_2 ;
set Ts[50]:=
2_1_2 1_1_2 2_3_4 ;
set Ts[51]:=
1_3_4 2_9_10 1_5_6 1_1_2 ;
set Ts[52]:=
2_3_4 1_1_2 ;
set Ts[53]:=
1_3_4 2_7_8 1_7_8 ;
set Ts[54]:=
1_3_4 1_5_6 ;
set Ts[55]:=
1_5_6 1_9_10 1_1_2 2_9_10 ;
set Ts[56]:=
2_5_6 1_9_10 2_1_2 ;
set Ts[57]:=
2_3_4 2_9_10 ;
set Ts[58]:=
1_9_10 2_9_10 1_5_6 1_3_4 ;
set Ts[59]:=
1_1_2 1_5_6 2_5_6 2_1_2 ;
set Ts[60]:=
1_5_6 2_9_10 2_1_2 1_3_4 ;
set Ts[61]:=
2_5_6 1_1_2 2_9_10 2_7_8 ;
set Ts[62]:=
1_3_4 2_9_10 1_1_2 1_9_10 ;
set Ts[63]:=
1_5_6 2_3_4 2_1_2 1_1_2 ;
set Ts[64]:=
1_5_6 2_1_2 ;
set Ts[65]:=
1_9_10 2_9_10 2_3_4 2_5_6 ;
set Ts[66]:=
2_7_8 2_9_10 ;
set Ts[67]:=
2_1_2 1_7_8 2_9_10 1_5_6 ;
set Ts[68]:=
1_9_10 2_3_4 2_9_10 ;
set Ts[69]:=
2_7_8 1_5_6 1_9_10 2_5_6 ;
set Ts[70]:=
1_1_2 1_7_8 ;
set Ts[71]:=
1_5_6 1_1_2 ;
set Ts[72]:=
2_1_2 2_3_4 ;
set Ts[73]:=
1_1_2 2_3_4 ;
set Ts[74]:=
1_9_10 2_9_10 ;
set Ts[75]:=
2_1_2 1_5_6 2_9_10 2_3_4 ;
set Ts[76]:=
1_9_10 2_3_4 2_9_10 1_3_4 ;
set Ts[77]:=
2_3_4 2_5_6 ;
set Ts[78]:=
1_9_10 1_3_4 ;
set Ts[79]:=
1_3_4 2_9_10 ;
set Ts[80]:=
1_1_2 2_7_8 1_7_8 ;
set Ts[81]:=
2_9_10 1_3_4 2_7_8 ;
set Ts[82]:=
1_5_6 1_9_10 1_1_2 1_3_4 ;
set Ts[83]:=
2_1_2 2_7_8 ;
set Ts[84]:=
1_5_6 2_1_2 2_3_4 ;

param rho:=
1 84
2 84
3 84
4 84
5 84
;

param sigma_class:=
1 84
2 84
3 84
4 84
5 84
6 84
7 84
8 84
9 84
10 84
11 84
12 84
;

param kmin:=
1 3
2 3
3 3
4 3
5 3
6 3
7 3
8 2
9 3
10 3
11 3
12 3
13 3
14 3
15 2
16 3
17 3
18 3
19 3
20 3
21 2
22 3
23 2
24 3
25 3
26 3
27 3
28 3
29 3
30 2
31 2
32 2
33 2
34 3
35 3
36 3
37 2
38 2
39 3
40 3
41 2
42 2
43 3
44 3
45 2
46 3
47 3
48 3
49 3
50 3
51 3
52 3
53 3
54 3
55 3
56 3
57 3
58 3
59 3
60 3
61 3
62 3
63 3
64 2
65 3
66 3
67 2
68 2
69 3
70 3
71 3
72 3
73 3
74 2
75 3
76 3
77 2
78 2
79 3
80 3
81 3
82 2
83 3
84 2
;

param kmax:=
1 6
2 7
3 7
4 7
5 6
6 7
7 6
8 5
9 7
10 6
11 7
12 7
13 7
14 7
15 5
16 6
17 7
18 7
19 6
20 7
21 5
22 6
23 5
24 7
25 6
26 6
27 6
28 7
29 6
30 5
31 5
32 5
33 5
34 7
35 7
36 7
37 5
38 5
39 6
40 6
41 5
42 5
43 7
44 6
45 5
46 6
47 6
48 6
49 6
50 6
51 7
52 7
53 6
54 6
55 6
56 7
57 6
58 7
59 7
60 7
61 7
62 6
63 7
64 5
65 7
66 7
67 5
68 5
69 7
70 6
71 7
72 7
73 6
74 5
75 6
76 7
77 5
78 5
79 7
80 7
81 7
82 5
83 6
84 5
;

